p cnf 180 467
e 1 2 0
a 3 4 0
e 5 6 0
a 7 8 0
e 9 10 25 26 27 28 29 30 0
a 11 12 0
e 13 14 15 16 17 18 19 20 21 22 23 24 31 32 0
e 33 34 35 36 37 38 39 40 41 42 43 44 45 46 47 48 49 50 51 52 53 54 55 56 57 58 59 60 61 62 63 64 65 66 67 68 69 70 71 72 73 74 75 76 77 78 79 80 81 82 83 84 85 86 87 88 89 90 91 92 93 94 95 96 97 98 99 100 101 102 103 104 105 106 107 108 109 110 111 112 113 114 115 116 117 118 119 120 121 122 123 124 125 126 127 128 129 130 131 132 133 134 135 136 137 138 139 140 141 142 143 144 145 146 147 148 149 150 151 152 153 154 155 156 157 158 159 160 161 162 163 164 165 166 167 168 169 170 171 172 173 174 175 176 177 178 179 180 0
1 33 0
-11 33 0
-1 11 -33 0
11 34 0
-1 34 0
-11 1 -34 0
33 -35 0
34 -35 0
-33 -34 35 0
2 36 0
-12 36 0
-2 12 -36 0
12 37 0
-2 37 0
-12 2 -37 0
36 -38 0
37 -38 0
-36 -37 38 0
35 -39 0
38 -39 0
-35 -38 39 0
-13 -40 0
15 -40 0
-16 -40 0
13 -15 16 40 0
39 41 0
-40 41 0
-39 40 -41 0
13 42 0
-15 42 0
-13 15 -42 0
15 43 0
-13 43 0
-15 13 -43 0
42 -44 0
43 -44 0
-42 -43 44 0
14 45 0
-16 45 0
-14 16 -45 0
16 46 0
-14 46 0
-16 14 -46 0
45 -47 0
46 -47 0
-45 -46 47 0
44 -48 0
47 -48 0
-44 -47 48 0
-39 49 0
-48 49 0
39 48 -49 0
3 50 0
-11 50 0
-3 11 -50 0
11 51 0
-3 51 0
-11 3 -51 0
50 -52 0
51 -52 0
-50 -51 52 0
4 53 0
-12 53 0
-4 12 -53 0
12 54 0
-4 54 0
-12 4 -54 0
53 -55 0
54 -55 0
-53 -54 55 0
52 -56 0
55 -56 0
-52 -55 56 0
56 -57 0
-15 -57 0
-56 15 57 0
17 -58 0
18 -58 0
-17 -18 58 0
57 59 0
-58 59 0
-57 58 -59 0
15 60 0
-17 60 0
-15 17 -60 0
17 61 0
-15 61 0
-17 15 -61 0
60 -62 0
61 -62 0
-60 -61 62 0
16 63 0
-18 63 0
-16 18 -63 0
18 64 0
-16 64 0
-18 16 -64 0
63 -65 0
64 -65 0
-63 -64 65 0
62 -66 0
65 -66 0
-62 -65 66 0
-57 67 0
-66 67 0
57 66 -67 0
5 68 0
-11 68 0
-5 11 -68 0
11 69 0
-5 69 0
-11 5 -69 0
68 -70 0
69 -70 0
-68 -69 70 0
6 71 0
-12 71 0
-6 12 -71 0
12 72 0
-6 72 0
-12 6 -72 0
71 -73 0
72 -73 0
-71 -72 73 0
70 -74 0
73 -74 0
-70 -73 74 0
-17 -75 0
19 -75 0
-20 -75 0
17 -19 20 75 0
74 76 0
-75 76 0
-74 75 -76 0
17 77 0
-19 77 0
-17 19 -77 0
19 78 0
-17 78 0
-19 17 -78 0
77 -79 0
78 -79 0
-77 -78 79 0
18 80 0
-20 80 0
-18 20 -80 0
20 81 0
-18 81 0
-20 18 -81 0
80 -82 0
81 -82 0
-80 -81 82 0
79 -83 0
82 -83 0
-79 -82 83 0
-74 84 0
-83 84 0
74 83 -84 0
7 85 0
-11 85 0
-7 11 -85 0
11 86 0
-7 86 0
-11 7 -86 0
85 -87 0
86 -87 0
-85 -86 87 0
8 88 0
-12 88 0
-8 12 -88 0
12 89 0
-8 89 0
-12 8 -89 0
88 -90 0
89 -90 0
-88 -89 90 0
87 -91 0
90 -91 0
-87 -90 91 0
91 -92 0
-19 -92 0
-91 19 92 0
21 -93 0
22 -93 0
-21 -22 93 0
92 94 0
-93 94 0
-92 93 -94 0
19 95 0
-21 95 0
-19 21 -95 0
21 96 0
-19 96 0
-21 19 -96 0
95 -97 0
96 -97 0
-95 -96 97 0
20 98 0
-22 98 0
-20 22 -98 0
22 99 0
-20 99 0
-22 20 -99 0
98 -100 0
99 -100 0
-98 -99 100 0
97 -101 0
100 -101 0
-97 -100 101 0
-92 102 0
-101 102 0
92 101 -102 0
9 103 0
-11 103 0
-9 11 -103 0
11 104 0
-9 104 0
-11 9 -104 0
103 -105 0
104 -105 0
-103 -104 105 0
10 106 0
-12 106 0
-10 12 -106 0
12 107 0
-10 107 0
-12 10 -107 0
106 -108 0
107 -108 0
-106 -107 108 0
105 -109 0
108 -109 0
-105 -108 109 0
-21 -110 0
23 -110 0
-24 -110 0
21 -23 24 110 0
109 111 0
-110 111 0
-109 110 -111 0
21 112 0
-23 112 0
-21 23 -112 0
23 113 0
-21 113 0
-23 21 -113 0
112 -114 0
113 -114 0
-112 -113 114 0
22 115 0
-24 115 0
-22 24 -115 0
24 116 0
-22 116 0
-24 22 -116 0
115 -117 0
116 -117 0
-115 -116 117 0
114 -118 0
117 -118 0
-114 -117 118 0
-109 119 0
-118 119 0
109 118 -119 0
41 -120 0
49 -120 0
59 -120 0
67 -120 0
76 -120 0
84 -120 0
94 -120 0
102 -120 0
111 -120 0
119 -120 0
-41 -49 -59 -67 -76 -84 -94 -102 -111 -119 120 0
-11 -121 0
-12 -121 0
11 12 121 0
-31 -122 0
32 -122 0
31 -32 122 0
121 123 0
-122 123 0
-121 122 -123 0
-11 -124 0
12 -124 0
11 -12 124 0
31 -125 0
32 -125 0
-31 -32 125 0
31 -126 0
-32 -126 0
-31 32 126 0
-31 -127 0
-32 -127 0
31 32 127 0
-125 128 0
-126 128 0
-127 128 0
125 126 127 -128 0
124 129 0
-128 129 0
-124 128 -129 0
11 -130 0
-12 -130 0
-11 12 130 0
130 131 0
-126 131 0
-130 126 -131 0
11 -132 0
12 -132 0
-11 -12 132 0
132 133 0
-125 133 0
-132 125 -133 0
25 134 0
-11 134 0
-25 11 -134 0
11 135 0
-25 135 0
-11 25 -135 0
134 -136 0
135 -136 0
-134 -135 136 0
26 137 0
-12 137 0
-26 12 -137 0
12 138 0
-26 138 0
-12 26 -138 0
137 -139 0
138 -139 0
-137 -138 139 0
136 -140 0
139 -140 0
-136 -139 140 0
27 141 0
-31 141 0
-27 31 -141 0
31 142 0
-27 142 0
-31 27 -142 0
141 -143 0
142 -143 0
-141 -142 143 0
28 144 0
-32 144 0
-28 32 -144 0
32 145 0
-28 145 0
-32 28 -145 0
144 -146 0
145 -146 0
-144 -145 146 0
143 -147 0
146 -147 0
-143 -146 147 0
140 148 0
-147 148 0
-140 147 -148 0
23 -149 0
-24 -149 0
-23 24 149 0
140 150 0
-149 150 0
-140 149 -150 0
27 151 0
-11 151 0
-27 11 -151 0
11 152 0
-27 152 0
-11 27 -152 0
151 -153 0
152 -153 0
-151 -152 153 0
28 154 0
-12 154 0
-28 12 -154 0
12 155 0
-28 155 0
-12 28 -155 0
154 -156 0
155 -156 0
-154 -155 156 0
153 -157 0
156 -157 0
-153 -156 157 0
29 158 0
-31 158 0
-29 31 -158 0
31 159 0
-29 159 0
-31 29 -159 0
158 -160 0
159 -160 0
-158 -159 160 0
30 161 0
-32 161 0
-30 32 -161 0
32 162 0
-30 162 0
-32 30 -162 0
161 -163 0
162 -163 0
-161 -162 163 0
160 -164 0
163 -164 0
-160 -163 164 0
157 165 0
-164 165 0
-157 164 -165 0
157 166 0
-149 166 0
-157 149 -166 0
29 167 0
-11 167 0
-29 11 -167 0
11 168 0
-29 168 0
-11 29 -168 0
167 -169 0
168 -169 0
-167 -168 169 0
30 170 0
-12 170 0
-30 12 -170 0
12 171 0
-30 171 0
-12 30 -171 0
170 -172 0
171 -172 0
-170 -171 172 0
169 -173 0
172 -173 0
-169 -172 173 0
173 174 0
-149 174 0
-173 149 -174 0
-25 -175 0
-26 -175 0
25 26 175 0
29 -176 0
-30 -176 0
-29 30 176 0
29 -177 0
30 -177 0
-29 -30 177 0
-176 178 0
-177 178 0
176 177 -178 0
123 -179 0
129 -179 0
131 -179 0
133 -179 0
148 -179 0
150 -179 0
165 -179 0
166 -179 0
174 -179 0
175 -179 0
178 -179 0
-123 -129 -131 -133 -148 -150 -165 -166 -174 -175 -178 179 0
-13 -180 0
120 -180 0
179 -180 0
13 -120 -179 180 0
180 0

